
Gurobi 9.1.2 (win64) logging started Tue Jun 13 16:07:31 2023

Changed value of parameter logfile to resultTrans-Dist-20230613T1603flex_all.log
   Prev:   Default: 
Changed value of parameter MIPFocus to 1
   Prev: 0  Min: 0  Max: 3  Default: 0
No parameters matching 'Parallel' found
Changed value of parameter Threads to 32
   Prev: 0  Min: 0  Max: 1024  Default: 0
Changed value of parameter MIPGap to 0.01
   Prev: 0.0001  Min: 0.0  Max: inf  Default: 0.0001
Changed value of parameter SimplexPricing to 2
   Prev: -1  Min: -1  Max: 3  Default: -1
Changed value of parameter DegenMoves to 0
   Prev: -1  Min: -1  Max: 2000000000  Default: -1
Gurobi Optimizer version 9.1.2 build v9.1.2rc0 (win64)
Thread count: 4 physical cores, 4 logical processors, using up to 32 threads

Warning: Thread count (32) is larger than processor count (4)
         Reduce the value of the Threads parameter to improve performance

Optimize a model with 364870 rows, 232372 columns and 1401121 nonzeros
Model fingerprint: 0xe7573bfd
Variable types: 231876 continuous, 496 integer (204 binary)
Coefficient statistics:
  Matrix range     [1e-08, inf]
  Objective range  [1e+00, 1e+00]
  Bounds range     [1e+00, 1e+00]
  RHS range        [2e-02, 2e+03]
Warning: Model contains large matrix coefficient range
         Consider reformulating model or setting NumericFocus parameter
         to avoid numerical issues.
Presolve removed 215386 rows and 187755 columns
Presolve time: 3.83s
Presolved: 149484 rows, 44617 columns, 574750 nonzeros
Variable types: 44403 continuous, 214 integer (214 binary)

Deterministic concurrent LP optimizer: primal and dual simplex (primal and dual model)
Showing first log only...

Presolve removed 116 rows and 68 columns
Presolved: 149368 rows, 44549 columns, 574134 nonzeros


Root simplex log...

Iteration    Objective       Primal Inf.    Dual Inf.      Time
       0    7.3938151e+08   3.320582e+02   6.764081e+09      5s
   23363    7.3943955e+08   2.904165e+02   1.402415e+13     10s
   24946    7.3942558e+08   5.170616e+03   1.572465e+15     15s
   26225    7.3942458e+08   2.358260e+03   3.806679e+14     20s
   27245    7.3943697e+08   8.696880e+01   2.995568e+11     25s
   28156    7.3968584e+08   0.000000e+00   3.262166e+07     29s
   28914    7.3953831e+08   0.000000e+00   5.943841e+08     30s
   31051    7.3946589e+08   0.000000e+00   1.017023e+08     35s
   32981    7.3944073e+08   0.000000e+00   4.031908e+08     41s
   34295    7.3943747e+08   0.000000e+00   1.218316e+08     45s
   35273    7.3942337e+08   0.000000e+00   1.272925e+07     50s
   37515    7.3941708e+08   0.000000e+00   1.834146e+07     55s
   38449    7.3941403e+08   0.000000e+00   1.095461e+08     61s
   39461    7.3941084e+08   0.000000e+00   7.505258e+07     66s
Concurrent spin time: 0.00s

Solved with dual simplex (primal model)

Root relaxation: objective 7.393958e+08, 108495 iterations, 62.05 seconds

    Nodes    |    Current Node    |     Objective Bounds      |     Work
 Expl Unexpl |  Obj  Depth IntInf | Incumbent    BestBd   Gap | It/Node Time

     0     0 7.3940e+08    0    6          - 7.3940e+08      -     -   66s
H    0     0                    7.393970e+08 7.3940e+08  0.00%     -   69s

Explored 1 nodes (108495 simplex iterations) in 69.73 seconds
Thread count was 32 (of 4 available processors)

Solution count 1: 7.39397e+08 

Optimal solution found (tolerance 1.00e-02)
Warning: max constraint violation (8.8191e-06) exceeds tolerance
Best objective 7.393970462804e+08, best bound 7.393957840379e+08, gap 0.0002%
